(set-info :source  loris-7.ddns.comp.nus.edu.sg/~project/hip/) 
;Variables declarations
(declare-fun res () Int)
(declare-fun mx () Int)
(declare-fun d_3243 () Int)
(declare-fun mx1_3246 () Int)
(declare-fun mx2_3249 () Int)
(declare-fun mx1 () Int)
(declare-fun mx2 () Int)
(declare-fun maxi_3402 () Int)
(declare-fun mx3_3400 () Int)
(declare-fun mx4_3401 () Int)
(declare-fun r_3722 () Int)
(declare-fun tright_3714 () Int)
(declare-fun m2_3723 () Int)
(declare-fun d_3718 () Int)
(declare-fun mx4_3709 () Int)
(declare-fun tval_3710 () Int)
(declare-fun max2_3707 () Int)
(declare-fun mx2_3341 () Int)
(declare-fun max1_3706 () Int)
(declare-fun v_3715 () Int)
(declare-fun mx1_3340 () Int)
(declare-fun m2_3241 () Int)
(declare-fun m1_3240 () Int)
(declare-fun m3_3242 () Int)
(declare-fun n () Int)
(declare-fun m2_3248 () Int)
(declare-fun m1_3245 () Int)
(declare-fun tnright_3712 () Int)
(declare-fun m1_3720 () Int)
(declare-fun l_3719 () Int)
(declare-fun mx3_3708 () Int)
(declare-fun tnleft_3711 () Int)
(declare-fun tleft_3713 () Int)
;Relations declarations
;Axioms assertions
;Antecedent
(assert (= res d_3243))
(assert (<= 0 mx3_3400))
(assert (<= 0 mx4_3401))
(assert (<= 0 mx2))
(assert (<= 0 mx1))
(assert (<= 0 mx1_3246))
(assert (<= 0 mx2_3249))
(assert (<= d_3243 mx))
(assert (<= 0 d_3243))
(assert (<= mx1_3246 d_3243))
(assert (<= mx2_3249 d_3243))
(assert (= mx1 mx1_3246))
(assert (= mx2 mx2_3249))
(assert (<= mx3_3400 mx1))
(assert (<= mx4_3401 mx2))
(assert (or (and (= maxi_3402 mx1) (>= mx1 mx2)) (and (= maxi_3402 mx2) (< mx1 mx2))))
(assert (<= 0 v_3715))
(assert (<= v_3715 maxi_3402))
(assert (= mx1_3340 mx3_3400))
(assert (= mx2_3341 mx4_3401))
(assert (<= mx4_3709 mx2_3341))
(assert (= r_3722 tright_3714))
(assert (or (and (and (< tright_3714 1) (= tnright_3712 0)) (= mx4_3709 0)) (and (and (<= 0 mx4_3709) (<= 1 tnright_3712)) (> tright_3714 0))))
(assert (= m2_3723 tnright_3712))
(assert (= d_3718 tval_3710))
(assert (<= 0 mx2_3341))
(assert (<= 0 mx1_3340))
(assert (<= 0 tval_3710))
(assert (<= mx4_3709 tval_3710))
(assert (<= mx3_3708 tval_3710))
(assert (<= tval_3710 max2_3707))
(assert (or (and (= max2_3707 mx2_3341) (>= mx2_3341 max1_3706)) (and (= max2_3707 max1_3706) (< mx2_3341 max1_3706))))
(assert (or (and (= max1_3706 mx1_3340) (>= mx1_3340 v_3715)) (and (= max1_3706 v_3715) (< mx1_3340 v_3715))))
(assert (<= mx3_3708 mx1_3340))
(assert (<= 0 tnright_3712))
(assert (<= 0 m1_3240))
(assert (<= 0 m2_3241))
(assert (not (= m1_3245 0)))
(assert (< 0 n))
(assert (= m2_3241 m2_3248))
(assert (= m1_3240 m1_3245))
(assert (<= m3_3242 1))
(assert (<= 0 m3_3242))
(assert (= (+ m3_3242 m2_3248) m1_3245))
(assert (= n (+ (+ m2_3248 1) m1_3245)))
(assert (not (= m2_3248 0)))
(assert (= (+ (+ 1 tnleft_3711) tnright_3712) (+ m2_3248 m1_3245)))
(assert (<= (+ 0 tnright_3712) tnleft_3711))
(assert (<= tnleft_3711 (+ 1 tnright_3712)))
(assert (<= 0 tnleft_3711))
(assert (= m1_3720 tnleft_3711))
(assert (= l_3719 tleft_3713))
(assert (or (and (and (< tleft_3713 1) (= tnleft_3711 0)) (= mx3_3708 0)) (and (and (<= 0 mx3_3708) (<= 1 tnleft_3711)) (> tleft_3713 0))))
;Negation of Consequence
(assert (not (or (= tnleft_3711 0) (< tleft_3713 1))))
(check-sat)